sat
(model
; cardinality of BoundSet is 3
(declare-sort BoundSet 0)
; rep: @uc_BoundSet_0
; rep: @uc_BoundSet_1
; rep: @uc_BoundSet_2
(declare-sort UnboundSet 0)
(define-fun IsTeacherOf ((BOUND_VARIABLE_409 BoundSet)) Bool true)
(define-fun IsBestClass ((BOUND_VARIABLE_409 BoundSet)) Bool (= @uc_BoundSet_1 BOUND_VARIABLE_409))
)
